Comps = {frontend0, frontend1, backend0, backend1, database0, database1};
mustComps = {frontend0, frontend1};
Flavs = {tiny, medium, large};
Nodes = {n1, n2, n3, n4};
CRes = {CPU, RAM, storage, bwIn, bwOut};
NRes = {ssl, fwall, encr, avail, latency};
Flav = [{medium, large}, {medium, large}, {tiny, medium, large}, {tiny, medium, large}, {large}, {large}];
Uses = array2d(CompFlavs, CompFlavs, [
	0,0,0,0,1,0,0,0,0,0,0,0,
	0,0,0,0,1,0,0,0,0,0,0,0,
	0,0,0,0,1,0,0,0,0,0,0,0,
	0,0,0,0,1,0,0,0,0,0,0,0,
	0,0,0,0,0,0,0,0,0,0,0,0,
	0,0,0,0,0,0,0,0,0,1,0,0,
	0,0,0,0,0,0,0,0,0,1,0,0,
	0,0,0,0,0,0,0,0,0,0,0,0,
	0,0,0,0,0,0,0,0,0,1,0,0,
	0,0,0,0,0,0,0,0,0,1,0,0,
	0,0,0,0,0,0,0,0,0,0,0,0,
	0,0,0,0,0,0,0,0,0,0,0,0,
]);
mayUse = array2d(Comps, CompFlavs, [
	0,0,0,0,0,0,0,0,0,0,0,0,
	0,0,0,0,0,0,0,0,0,0,0,0,
	1,1,1,1,0,0,0,0,0,0,0,0,
	0,0,0,0,0,1,1,0,1,1,0,0,
	0,0,0,0,0,0,0,0,0,0,0,0,
	0,0,0,0,0,0,0,0,0,0,0,0,
]);
MIN_RBOUNDS = 0;
MAX_RBOUNDS = 1000000;

worstBounds = [0, 0, 0, 0, 0, 0, 0, 0, 0, MAX_RBOUNDS];
bestBounds = [MAX_RBOUNDS - i | i in worstBounds];

comReq = array2d(CompFlavs, Res, [
  2, 383, 396, 921, 444, 0, 1, 0, 95, MAX_RBOUNDS,
  2, 246, 449, 242, 850, 1, 1, 1, 97, MAX_RBOUNDS,
  4, 481, 446, 945, 374, 1, 0, 1, 97, MAX_RBOUNDS,
  8, 264, 364, 279, 396, 1, 1, 1, 96, MAX_RBOUNDS,
  8, 265, 380, 875, 568, 0, 1, 1, 97, MAX_RBOUNDS,
  2, 328, 409, 242, 499, 1, 0, 1, 97, MAX_RBOUNDS,
  2, 456, 376, 514, 600, 0, 1, 0, 96, MAX_RBOUNDS,
  8, 207, 225, 598, 478, 1, 1, 0, 97, MAX_RBOUNDS,
  4, 227, 356, 543, 978, 1, 1, 1, 97, MAX_RBOUNDS,
  4, 365, 435, 891, 743, 1, 1, 0, 95, MAX_RBOUNDS,
  4, 275, 460, 486, 492, 0, 0, 0, 96, MAX_RBOUNDS,
  2, 480, 266, 907, 573, 1, 0, 1, 97, MAX_RBOUNDS,
]);

nodeCap = array2d(Nodes0, Res, [bestBounds[r] | r in Res] ++ [
  16, 28284, 197004, 16258, 14701, 1, 1, 1, 99, 0,
  16, 60761, 63740, 19357, 14951, 1, 1, 0, 98, 0,
  32, 98605, 632852, 22767, 15945, 1, 1, 1, 98, 0,
  32, 23875, 846019, 19312, 24064, 1, 1, 1, 99, 0,
]);

cost = array2d(Nodes0, Res, [
  0, 0, 0, 0, 0, 0, 0, 0, 0, 0, % no node
  10, 5, 23, 0, 0, 0, 0, 0, 0, 0,
  20, 9, 23, 0, 0, 0, 0, 0, 0, 0,
  20, 8, 19, 0, 0, 0, 0, 0, 0, 0,
  19, 7, 19, 0, 0, 0, 0, 0, 0, 0,
]);

carb = array2d(Nodes0, Res, [
  0, 0, 0, 0, 0, 0, 0, 0, 0, 0, % no node
  11, 4, 12, 0, 0, 0, 0, 0, 0, 0,
  34, 3, 17, 0, 0, 0, 0, 0, 0, 0,
  20, 43, 47, 0, 0, 0, 0, 0, 0, 0,
  24, 28, 37, 0, 0, 0, 0, 0, 0, 0,
]);

costBudget = 35195;
carbBudget = 45998;

depReq = array4d(Comps, Flavs, Comps, Res, [
  if c1 = frontend0 /\ c2 = backend0 /\ r = N(avail) then
    97
  elseif c1 = frontend1 /\ c2 = backend1 /\ r = N(avail) then
    96
  elseif c1 = frontend1 /\ c2 = backend0 /\ r = N(avail) then
    96
  else
    worstBounds[r]
  endif | c1 in Comps, i in Flavs, c2 in Comps, r in Res]);

linkCap = array3d(Nodes0, Nodes0, Res, [
  if ni = 0 \/ nj = 0 then
    bestBounds[r]
  elseif ni = nj /\ r = N(avail) then
    nodeCap[ni,r]
  elseif {ni, nj} = {n1, n2} /\ r = N(avail) then
    99
  elseif {ni, nj} = {n2, n4} /\ r = N(avail) then
    99
  elseif {ni, nj} = {n1, n4} /\ r = N(avail) then
    98
  elseif {ni, nj} = {n2, n3} /\ r = N(avail) then
    98
  elseif {ni, nj} = {n1, n3} /\ r = N(avail) then
    99
  elseif {ni, nj} = {n3, n4} /\ r = N(avail) then
    99
  else
    worstBounds[r]
  endif | ni in Nodes0, nj in Nodes0, r in Res]);

imp = array2d(Comps, Flavs, [
  2, 3, 5,
  1, 2, 7,
  6, 7, 9,
  2, 3, 8,
  1, 7, 8,
  1, 3, 7,
]);

